6 6 2.0
6 1 3 1 1 1 3 2 2 6 3 6 2 4 7 1 7 2 6 3 2 3 2 5 6 4 6 
6 3 2 8 6 8 1 8 3 3 5 2 5 5 5 3 5 10 3 10 2 10 2 6 10 5 10 2 1 10 2 10 2 4 4 6 4 
6 3 3 5 2 5 4 5 2 4 4 5 4 1 6 8 1 1 9 3 2 1 5 1 3 1 3 5 7 4 7 6 7 
6 1 2 5 3 1 5 2 5 4 5 1 3 5 2 4 3 6 3 1 5 8 1 6 9 
6 3 3 9 2 9 4 9 2 2 3 6 3 3 5 5 4 5 2 5 1 6 4 3 1 3 4 3 2 3 1 4 1 
6 3 2 3 4 3 3 3 2 4 3 5 3 1 6 9 3 1 10 4 10 2 10 3 5 4 4 4 3 4 2 3 1 5 1 
2 10 2 13 5 18 27 
2 2 4 15 2 21 36 
3 2 1 7 2 9 15 2 17 23 
2 3 2 14 2 21 27 
2 5 4 12 6 20 28 
3 3 5 11 6 18 30 1 37 43 
